NAME : mEgtspf.pid22862.gtsp.161061381.tour
COMMENT : Length = 161061381
COMMENT : Found by LKH [Keld Helsgaun] Thu Mar 20 01:39:31 2025
TYPE : TOUR
DIMENSION : 90
TOUR_SECTION
1
78
75
76
77
10
6
13
14
11
12
89
90
87
88
65
66
63
64
8
19
20
21
22
2
74
71
72
73
33
34
31
32
9
4
3
5
37
38
35
36
7
86
83
84
85
42
39
40
41
23
24
25
26
44
45
46
43
59
60
61
62
27
28
29
30
51
52
53
54
81
82
79
80
50
47
48
49
18
15
16
17
70
67
68
69
58
55
56
57
-1
EOF
